Maximize
  0.8 x_pain_killer_1 + 0.4 x_pain_killer_2
Subject To
  c1: 0.3 x_pain_killer_1 + 0.6 x_pain_killer_2 <= 8
  c2: 0.5 x_pain_killer_1 + 0.7 x_pain_killer_2 >= 4
Integer
  x_pain_killer_1 x_pain_killer_2
End